frontend/benchmarks/cvc4-conj/original/benchmarks-dtt/hipspec/rev-equiv-goal1.smt2
;(set-logic ALL_SUPPORTED)

(declare-datatypes () ((Lst (cons (head Int) (tail Lst)) (nil))))

(declare-fun append (Lst Lst) Lst)
(assert (forall ((x Lst)) (= (append nil x) x)))
(assert (forall ((x Int) (y Lst) (z Lst)) (= (append (cons x y) z) (cons x (append y z)))))

(declare-fun rev (Lst) Lst)
(assert (= (rev nil) nil))
(assert (forall ((x Int) (y Lst)) (= (rev (cons x y)) (append (rev y) (cons x nil)))))

(declare-fun qreva (Lst Lst) Lst)
(assert (forall ((x Lst)) (= (qreva nil x) x)))
(assert (forall ((x Lst) (y Lst) (z Int)) (= (qreva (cons z x) y) (qreva x (cons z y)))))

(declare-fun qrev (Lst) Lst)
(assert (forall ((x Lst)) (= (qrev x) (qreva x nil))))


; proven
; conjecture
(assert (not 
(forall ((x Lst)) (= (append x nil) x)) ; G-rev-equiv-1 
))
(check-sat)
