experiments/cvc4_benchmarks/expl/hipspec/rev-equiv-goal1.smt2.log
15:58:36 [WARN] Collecting statistics
15:58:36 [WARN]  ex is: zero
15:58:36 [WARN]  ex is: (succ zero)
15:58:36 [WARN]  ex is: (succ (succ zero))
15:58:36 [WARN]  ex is: nil
15:58:36 [WARN]  ex is: (cons autovar_Nat_0 nil)
15:58:36 [WARN]  ex is: (cons autovar_Nat_1 (cons autovar_Nat_0 nil))
15:58:36 [WARN] Proof mode: false
15:58:36 [WARN]  ex is: zero
15:58:36 [WARN]  ex is: (succ zero)
15:58:36 [WARN]  ex is: (succ (succ zero))
15:58:36 [WARN]  ex is: nil
15:58:36 [WARN]  ex is: (cons autovar_Nat_0 nil)
15:58:36 [WARN]  ex is: (cons autovar_Nat_1 (cons autovar_Nat_0 nil))
15:58:36 [WARN] Proof mode: false
15:58:36 [WARN] proved: (append ?ts_ph_Lst_0 nil) => ?ts_ph_Lst_0
15:58:36 [WARN] proved: (qrev (qreva ?ts_ph_Lst_0 ?ts_ph_Lst_1)) => (qreva ?ts_ph_Lst_1 ?ts_ph_Lst_0)
15:58:36 [WARN] proved: (qreva ?ts_ph_Lst_1 ?ts_ph_Lst_0) => (qrev (qreva ?ts_ph_Lst_0 ?ts_ph_Lst_1))
15:58:36 [WARN] generalized case_split proof as: (append (append ?ts_ph_Lst_0 ?ts_ph_Lst_1) ?ts_ph_Lst_2) -- (append ?ts_ph_Lst_0 (append ?ts_ph_Lst_1 ?ts_ph_Lst_2))
15:58:36 [WARN] proved: (append (append ?ts_ph_Lst_0 ?ts_ph_Lst_1) ?ts_ph_Lst_2) => (append ?ts_ph_Lst_0 (append ?ts_ph_Lst_1 ?ts_ph_Lst_2))
15:58:36 [WARN] proved: (append ?ts_ph_Lst_0 (append ?ts_ph_Lst_1 ?ts_ph_Lst_2)) => (append (append ?ts_ph_Lst_0 ?ts_ph_Lst_1) ?ts_ph_Lst_2)
15:58:36 [WARN] proved: (append (qrev ?ts_ph_Lst_0) (cons ?ts_ph_Nat_1 ?ts_ph_Lst_1)) => (qreva ?ts_ph_Lst_0 (cons ?ts_ph_Nat_1 ?ts_ph_Lst_1))
15:58:36 [WARN] proved: (qreva ?ts_ph_Lst_0 (cons ?ts_ph_Nat_1 ?ts_ph_Lst_1)) => (append (qrev ?ts_ph_Lst_0) (cons ?ts_ph_Nat_1 ?ts_ph_Lst_1))
15:58:36 [WARN] proved: (append (rev ?ts_ph_Lst_0) (cons ?ts_ph_Nat_1 ?ts_ph_Lst_1)) => (qreva ?ts_ph_Lst_0 (cons ?ts_ph_Nat_1 ?ts_ph_Lst_1))
15:58:36 [WARN] proved: (qreva ?ts_ph_Lst_0 (cons ?ts_ph_Nat_1 ?ts_ph_Lst_1)) => (append (rev ?ts_ph_Lst_0) (cons ?ts_ph_Nat_1 ?ts_ph_Lst_1))
15:58:36 [WARN] proved: (qreva (qrev ?ts_ph_Lst_0) (cons ?ts_ph_Nat_1 ?ts_ph_Lst_1)) => (qreva (rev ?ts_ph_Lst_0) (cons ?ts_ph_Nat_1 ?ts_ph_Lst_1))
15:58:36 [WARN] proved: (qreva (rev ?ts_ph_Lst_0) (cons ?ts_ph_Nat_1 ?ts_ph_Lst_1)) => (qreva (qrev ?ts_ph_Lst_0) (cons ?ts_ph_Nat_1 ?ts_ph_Lst_1))
15:58:36 [WARN] generalized case_split proof as: (append (rev ?ts_ph_Lst_0) (qreva ?ts_ph_Lst_1 ?ts_ph_Lst_2)) -- (qreva ?ts_ph_Lst_0 (qreva ?ts_ph_Lst_1 ?ts_ph_Lst_2))
15:58:36 [WARN] proved: (append (rev ?ts_ph_Lst_0) (qreva ?ts_ph_Lst_1 ?ts_ph_Lst_2)) => (qreva ?ts_ph_Lst_0 (qreva ?ts_ph_Lst_1 ?ts_ph_Lst_2))
15:58:36 [WARN] proved: (qreva ?ts_ph_Lst_0 (qreva ?ts_ph_Lst_1 ?ts_ph_Lst_2)) => (append (rev ?ts_ph_Lst_0) (qreva ?ts_ph_Lst_1 ?ts_ph_Lst_2))
15:58:36 [WARN] generalized case_split proof as: (append (qrev ?ts_ph_Lst_0) (qreva ?ts_ph_Lst_1 ?ts_ph_Lst_2)) -- (qreva ?ts_ph_Lst_0 (qreva ?ts_ph_Lst_1 ?ts_ph_Lst_2))
15:58:36 [WARN] proved: (append (qrev ?ts_ph_Lst_0) (qreva ?ts_ph_Lst_1 ?ts_ph_Lst_2)) => (qreva ?ts_ph_Lst_0 (qreva ?ts_ph_Lst_1 ?ts_ph_Lst_2))
15:58:36 [WARN] proved: (qreva ?ts_ph_Lst_0 (qreva ?ts_ph_Lst_1 ?ts_ph_Lst_2)) => (append (qrev ?ts_ph_Lst_0) (qreva ?ts_ph_Lst_1 ?ts_ph_Lst_2))
15:58:36 [WARN] generalized case_split proof as: (append ?ts_ph_Lst_0 (qreva ?ts_ph_Lst_1 ?ts_ph_Lst_2)) -- (qreva (rev ?ts_ph_Lst_0) (qreva ?ts_ph_Lst_1 ?ts_ph_Lst_2))
15:58:36 [WARN] proved: (append ?ts_ph_Lst_0 (qreva ?ts_ph_Lst_1 ?ts_ph_Lst_2)) => (qreva (rev ?ts_ph_Lst_0) (qreva ?ts_ph_Lst_1 ?ts_ph_Lst_2))
15:58:36 [WARN] proved: (qreva (rev ?ts_ph_Lst_0) (qreva ?ts_ph_Lst_1 ?ts_ph_Lst_2)) => (append ?ts_ph_Lst_0 (qreva ?ts_ph_Lst_1 ?ts_ph_Lst_2))
15:58:36 [WARN] generalized case_split proof as: (qreva (rev ?ts_ph_Lst_0) (append ?ts_ph_Lst_1 ?ts_ph_Lst_2)) -- (append ?ts_ph_Lst_0 (append ?ts_ph_Lst_1 ?ts_ph_Lst_2))
15:58:36 [WARN] proved: (qreva (rev ?ts_ph_Lst_0) (append ?ts_ph_Lst_1 ?ts_ph_Lst_2)) => (append ?ts_ph_Lst_0 (append ?ts_ph_Lst_1 ?ts_ph_Lst_2))
15:58:36 [WARN] proved: (append ?ts_ph_Lst_0 (append ?ts_ph_Lst_1 ?ts_ph_Lst_2)) => (qreva (rev ?ts_ph_Lst_0) (append ?ts_ph_Lst_1 ?ts_ph_Lst_2))
15:58:36 [WARN] proved: (append (rev ?ts_ph_Lst_0) (append ?ts_ph_Lst_1 ?ts_ph_Lst_0)) => (append (qreva ?ts_ph_Lst_0 ?ts_ph_Lst_1) ?ts_ph_Lst_0)
15:58:36 [WARN] proved: (append (qreva ?ts_ph_Lst_0 ?ts_ph_Lst_1) ?ts_ph_Lst_0) => (append (rev ?ts_ph_Lst_0) (append ?ts_ph_Lst_1 ?ts_ph_Lst_0))
15:58:37 [WARN] proved: (rev (rev ?ts_ph_Lst_0)) => ?ts_ph_Lst_0
